(set-option :auto-config false)
(set-option :model true)
(set-option :model.partial false)

(set-option :smt.mbqi false)
(define-sort Elt () Int)
(define-sort Set () (Array Elt Bool))
(define-fun smt_set_emp () Set ((as const Set) false))
(define-fun smt_set_mem ((x Elt) (s Set)) Bool (select s x))
(define-fun smt_set_add ((s Set) (x Elt)) Set (store s x true))
(define-fun smt_set_cup ((s1 Set) (s2 Set)) Set ((_ map or) s1 s2))
(define-fun smt_set_cap ((s1 Set) (s2 Set)) Set ((_ map and) s1 s2))
(define-fun smt_set_com ((s Set)) Set ((_ map not) s))
(define-fun smt_set_dif ((s1 Set) (s2 Set)) Set (smt_set_cap s1 (smt_set_com s2)))
(define-fun smt_set_sub ((s1 Set) (s2 Set)) Bool (= smt_set_emp (smt_set_dif s1 s2)))
(define-sort Map () (Array Elt Elt))
(define-fun smt_map_sel ((m Map) (k Elt)) Elt (select m k))
(define-fun smt_map_sto ((m Map) (k Elt) (v Elt)) Map (store m k v))
(define-fun Z3_OP_MUL ((x Int) (y Int)) Int (* x y))
(define-fun Z3_OP_DIV ((x Int) (y Int)) Int (div x y))
(declare-fun int_apply_$35$$35$3 (Int Int Int Int) Int)
(declare-fun bool_apply_$35$$35$6 (Int Int Int Int Int Int Int) Bool)
(declare-fun map_apply_$35$$35$4 (Int Int Int Int Int) Map)
(declare-fun real_apply_$35$$35$2 (Int Int Int) Real)
(declare-fun set_apply_$35$$35$1 (Int Int) Set)
(declare-fun set_to_int (Set) Int)
(declare-fun bitvec_apply$35$$35$6 (Int Int Int Int Int Int Int) (_ BitVec 32))
(declare-fun int_apply_$35$$35$5 (Int Int Int Int Int Int) Int)
(declare-fun map_apply_$35$$35$2 (Int Int Int) Map)
(declare-fun real_apply_$35$$35$4 (Int Int Int Int Int) Real)
(declare-fun bitvec_apply$35$$35$1 (Int Int) (_ BitVec 32))
(declare-fun int_apply_$35$$35$2 (Int Int Int) Int)
(declare-fun bool_apply_$35$$35$7 (Int Int Int Int Int Int Int Int) Bool)
(declare-fun map_apply_$35$$35$5 (Int Int Int Int Int Int) Map)
(declare-fun real_apply_$35$$35$3 (Int Int Int Int) Real)
(declare-fun set_apply_$35$$35$6 (Int Int Int Int Int Int Int) Set)
(declare-fun bitvec_apply$35$$35$7 (Int Int Int Int Int Int Int Int) (_ BitVec 32))
(declare-fun int_apply_$35$$35$4 (Int Int Int Int Int) Int)
(declare-fun bool_apply_$35$$35$1 (Int Int) Bool)
(declare-fun map_apply_$35$$35$3 (Int Int Int Int) Map)
(declare-fun real_apply_$35$$35$5 (Int Int Int Int Int Int) Real)
(declare-fun bitvec_apply$35$$35$2 (Int Int Int) (_ BitVec 32))
(declare-fun int_apply_$35$$35$1 (Int Int) Int)
(declare-fun bool_apply_$35$$35$4 (Int Int Int Int Int) Bool)
(declare-fun map_apply_$35$$35$6 (Int Int Int Int Int Int Int) Map)
(declare-fun set_apply_$35$$35$7 (Int Int Int Int Int Int Int Int) Set)
(declare-fun map_to_int (Map) Int)
(declare-fun set_apply_$35$$35$2 (Int Int Int) Set)
(declare-fun real_apply_$35$$35$1 (Int Int) Real)
(declare-fun bitvec_to_int ((_ BitVec 32)) Int)
(declare-fun bitvec_apply$35$$35$3 (Int Int Int Int) (_ BitVec 32))
(declare-fun bool_apply_$35$$35$5 (Int Int Int Int Int Int) Bool)
(declare-fun map_apply_$35$$35$7 (Int Int Int Int Int Int Int Int) Map)
(declare-fun set_apply_$35$$35$4 (Int Int Int Int Int) Set)
(declare-fun real_to_int (Real) Int)
(declare-fun set_apply_$35$$35$3 (Int Int Int Int) Set)
(declare-fun int_apply_$35$$35$7 (Int Int Int Int Int Int Int Int) Int)
(declare-fun bitvec_apply$35$$35$4 (Int Int Int Int Int) (_ BitVec 32))
(declare-fun bool_apply_$35$$35$2 (Int Int Int) Bool)
(declare-fun real_apply_$35$$35$6 (Int Int Int Int Int Int Int) Real)
(declare-fun set_apply_$35$$35$5 (Int Int Int Int Int Int) Set)
(declare-fun bool_to_int (Bool) Int)
(declare-fun bool_apply_$35$$35$3 (Int Int Int Int) Bool)
(declare-fun map_apply_$35$$35$1 (Int Int) Map)
(declare-fun real_apply_$35$$35$7 (Int Int Int Int Int Int Int Int) Real)
(declare-fun int_apply_$35$$35$6 (Int Int Int Int Int Int Int) Int)
(declare-fun bitvec_apply$35$$35$5 (Int Int Int Int Int Int) (_ BitVec 32))
(declare-fun runFun () Int)
(declare-fun VV$35$$35$501 () Int)
(declare-fun lq_karg$36$$36$dOptEq_a19u$35$$35$k_$35$$35$915 () Int)
(declare-fun lq_karg$36$lq_anf$36$$35$$35$d1dr$35$$35$k_$35$$35$915 () Int)
(declare-fun is_$40$$44$$44$$44$$44$$44$$44$$41$ () Int)
(declare-fun Proves.simpleProof$35$$35$rlS () Int)
(declare-fun VV$35$$35$1050 () Int)
(declare-fun fix$36$$36$dOptEq_a19u () Int)
(declare-fun VV$35$$35$914 () Int)
(declare-fun w$35$$35$a17t () Int)
(declare-fun addrLen () Int)
(declare-fun VV$35$$35$936 () Int)
(declare-fun Proves.D$58$OptLess$35$$35$rnG () Int)
(declare-fun lq_tmp$36$x$35$$35$298 () Int)
(declare-fun papp5 () Int)
(declare-fun FunctorList.identity$35$$35$r16T () Int)
(declare-fun is_$40$$44$$44$$44$$44$$41$ () Int)
(declare-fun ds_d1cR () Int)
(declare-fun VV$35$$35$950 () Int)
(declare-fun is_$40$$44$$44$$41$ () Int)
(declare-fun lq_anf$36$$35$$35$d1dj () Int)
(declare-fun lq_anf$36$$35$$35$d1dq () Int)
(declare-fun VV$35$$35$F$35$$35$1 () Int)
(declare-fun select_$40$$44$$44$$44$$44$$44$$44$$41$_6 () Int)
(declare-fun lq_anf$36$$35$$35$d1da () Int)
(declare-fun lq_anf$36$$35$$35$d1d1 () Int)
(declare-fun VV$35$$35$979 () Int)
(declare-fun lq_karg$36$lq_anf$36$$35$$35$d1da$35$$35$k_$35$$35$915 () Int)
(declare-fun select_$40$$44$$41$_2 () Int)
(declare-fun Proves.$63$$35$$35$rlM () Int)
(declare-fun lq_karg$36$lq_anf$36$$35$$35$d1dq$35$$35$k_$35$$35$915 () Int)
(declare-fun select_$40$$44$$44$$44$$44$$44$$41$_2 () Int)
(declare-fun VV$35$$35$1006 () Int)
(declare-fun select_$40$$44$$44$$44$$41$_2 () Int)
(declare-fun lq_tmp$36$x$35$$35$317 () Int)
(declare-fun Proves.$61$$61$$33$$35$$35$rlF () Int)
(declare-fun papp3 () Int)
(declare-fun FunctorList.id$35$$35$r16Q () Int)
(declare-fun proofBool () Int)
(declare-fun lq_karg$36$lq_anf$36$$35$$35$d1dt$35$$35$k_$35$$35$915 () Int)
(declare-fun lq_anf$36$$35$$35$d1dl () Int)
(declare-fun VV$35$$35$974 () Int)
(declare-fun lq_karg$36$lq_anf$36$$35$$35$d1dd$35$$35$k_$35$$35$915 () Int)
(declare-fun VV$35$$35$1030 () Int)
(declare-fun GHC.Types.LT$35$$35$6S () Int)
(declare-fun FunctorList.foo$35$$35$r16U () Int)
(declare-fun x$35$$35$a17j () Int)
(declare-fun VV$35$$35$984 () Int)
(declare-fun lq_karg$36$ds_d1cS$35$$35$k_$35$$35$915 () Int)
(declare-fun lq_tmp$36$x$35$$35$299 () Int)
(declare-fun FunctorList.compose$35$$35$r16S () Int)
(declare-fun papp4 () Int)
(declare-fun ds_d1cS () Int)
(declare-fun lq_anf$36$$35$$35$d1dk () Int)
(declare-fun r$35$$35$a17p () Int)
(declare-fun FunctorList.idollar$35$$35$r16R () Int)
(declare-fun GHC.Types.GT$35$$35$6W () Int)
(declare-fun select_$40$$44$$44$$44$$44$$44$$41$_5 () Int)
(declare-fun select_$40$$44$$44$$41$_1 () Int)
(declare-fun x$35$$35$a17g () Int)
(declare-fun VV$35$$35$989 () Int)
(declare-fun lq_karg$36$lq_anf$36$$35$$35$d1dn$35$$35$k_$35$$35$915 () Int)
(declare-fun autolen () Int)
(declare-fun select_$40$$44$$44$$44$$44$$41$_1 () Int)
(declare-fun select_$40$$44$$44$$44$$44$$44$$44$$41$_1 () Int)
(declare-fun lq_anf$36$$35$$35$d1dv () Int)
(declare-fun lq_tmp$36$x$35$$35$870 () Int)
(declare-fun select_$58$_2 () Int)
(declare-fun lq_tmp$36$x$35$$35$623 () Int)
(declare-fun lq_anf$36$$35$$35$d1df () Int)
(declare-fun Proves.D$58$ToProve$35$$35$rnd () Int)
(declare-fun lq_anf$36$$35$$35$d1d6 () Int)
(declare-fun VV$35$$35$1023 () Int)
(declare-fun VV$35$$35$1028 () Int)
(declare-fun null () Int)
(declare-fun VV$35$$35$1013 () Int)
(declare-fun Proves.D$58$OptGEq$35$$35$rnz () Int)
(declare-fun lq_tmp$36$x$35$$35$905 () Int)
(declare-fun lq_tmp$36$x$35$$35$316 () Int)
(declare-fun lq_karg$36$lq_anf$36$$35$$35$d1dm$35$$35$k_$35$$35$915 () Int)
(declare-fun w$35$$35$a17s () Int)
(declare-fun papp2 () Int)
(declare-fun lq_tmp$36$x$35$$35$628 () Int)
(declare-fun VV$35$$35$F$35$$35$50 () Int)
(declare-fun VV$35$$35$957 () Int)
(declare-fun lq_anf$36$$35$$35$d1dm () Int)
(declare-fun ds_d1cP () Int)
(declare-fun VV$35$$35$969 () Int)
(declare-fun lq_anf$36$$35$$35$d1dh () Int)
(declare-fun lq_anf$36$$35$$35$d1d8 () Int)
(declare-fun VV$35$$35$1016 () Int)
(declare-fun lq_tmp$36$x$35$$35$889 () Int)
(declare-fun fromJust () Int)
(declare-fun lq_tmp$36$x$35$$35$771 () Int)
(declare-fun VV$35$$35$1052 () Int)
(declare-fun x$35$$35$a17i () Int)
(declare-fun lq_anf$36$$35$$35$d1dx () Int)
(declare-fun papp7 () Int)
(declare-fun Proves.D$58$OptLEq$35$$35$rns () Int)
(declare-fun lq_tmp$36$x$35$$35$295 () Int)
(declare-fun lq_anf$36$$35$$35$d1dw () Int)
(declare-fun VV$35$$35$966 () Int)
(declare-fun lq_anf$36$$35$$35$d1dg () Int)
(declare-fun lq_karg$36$lq_anf$36$$35$$35$d1dg$35$$35$k_$35$$35$915 () Int)
(declare-fun lq_anf$36$$35$$35$d1d7 () Int)
(declare-fun lq_karg$36$lq_anf$36$$35$$35$d1d7$35$$35$k_$35$$35$915 () Int)
(declare-fun VV$35$$35$449 () Int)
(declare-fun lq_tmp$36$x$35$$35$644 () Int)
(declare-fun lq_tmp$36$x$35$$35$402 () Int)
(declare-fun VV$35$$35$991 () Int)
(declare-fun select_$40$$44$$44$$44$$44$$44$$41$_4 () Int)
(declare-fun VV$35$$35$1000 () Int)
(declare-fun select_$40$$44$$44$$44$$41$_4 () Int)
(declare-fun select_$40$$44$$44$$44$$41$_1 () Int)
(declare-fun lq_tmp$36$x$35$$35$391 () Int)
(declare-fun select_$40$$44$$44$$44$$44$$41$_5 () Int)
(declare-fun lq_anf$36$$35$$35$d1dr () Int)
(declare-fun select_$40$$44$$44$$44$$44$$44$$44$$41$_5 () Int)
(declare-fun VV$35$$35$963 () Int)
(declare-fun lq_tmp$36$x$35$$35$300 () Int)
(declare-fun lq_anf$36$$35$$35$d1db () Int)
(declare-fun lq_anf$36$$35$$35$d1d2 () Int)
(declare-fun select_Reader_1 () Int)
(declare-fun select_$40$$44$$41$_1 () Int)
(declare-fun lq_karg$36$lq_anf$36$$35$$35$d1dj$35$$35$k_$35$$35$915 () Int)
(declare-fun select_$40$$44$$44$$44$$44$$44$$41$_1 () Int)
(declare-fun Proves.QED$35$$35$rlJ () Int)
(declare-fun is_$58$ () Int)
(declare-fun VV$35$$35$986 () Int)
(declare-fun FunctorList.runIdentity$35$$35$r16N () Int)
(declare-fun seq () Int)
(declare-fun lq_karg$36$lq_anf$36$$35$$35$d1di$35$$35$k_$35$$35$915 () Int)
(declare-fun len () Int)
(declare-fun papp6 () Int)
(declare-fun f$35$$35$a17f () Int)
(declare-fun lq_anf$36$$35$$35$d1dy () Int)
(declare-fun ds_d1cQ () Int)
(declare-fun VV$35$$35$953 () Int)
(declare-fun lq_anf$36$$35$$35$d1di () Int)
(declare-fun lq_karg$36$lq_anf$36$$35$$35$d1d9$35$$35$k_$35$$35$915 () Int)
(declare-fun VV$35$$35$971 () Int)
(declare-fun r$35$$35$a17r () Int)
(declare-fun lq_anf$36$$35$$35$d1d9 () Int)
(declare-fun Proves.D$58$OptGt$35$$35$rnN () Int)
(declare-fun strLen () Int)
(declare-fun lq_anf$36$$35$$35$d1d4 () Int)
(declare-fun lq_tmp$36$x$35$$35$401 () Int)
(declare-fun lq_tmp$36$x$35$$35$720 () Int)
(declare-fun isJust () Int)
(declare-fun select_$40$$44$$44$$41$_3 () Int)
(declare-fun select_$40$$44$$44$$44$$44$$41$_3 () Int)
(declare-fun Proves.D$58$OptEq$35$$35$rnl () Int)
(declare-fun lq_tmp$36$x$35$$35$296 () Int)
(declare-fun select_$40$$44$$44$$44$$44$$44$$44$$41$_3 () Int)
(declare-fun f$35$$35$a17k () Int)
(declare-fun lq_anf$36$$35$$35$d1dt () Int)
(declare-fun pure () Int)
(declare-fun lq_anf$36$$35$$35$d1dd () Int)
(declare-fun g$35$$35$a17m () Int)
(declare-fun VV$35$$35$959 () Int)
(declare-fun lq_anf$36$$35$$35$d1dc () Int)
(declare-fun lq_tmp$36$x$35$$35$266 () Int)
(declare-fun lq_anf$36$$35$$35$d1d3 () Int)
(declare-fun Prop () Int)
(declare-fun r$35$$35$a17h () Int)
(declare-fun lq_tmp$36$x$35$$35$813 () Int)
(declare-fun VV$35$$35$995 () Int)
(declare-fun Proves.$36$fOptEqa$40$$45$$62$$41$$35$$35$roU () Int)
(declare-fun Proves.$36$fOptEqab$35$$35$roM () Int)
(declare-fun key$id () Int)
(declare-fun VV$35$$35$511 () Int)
(declare-fun GHC.Types.Eq$35$$35$$35$6C () Int)
(declare-fun lq_tmp$36$x$35$$35$578 () Int)
(declare-fun lq_karg$36$lq_anf$36$$35$$35$d1dc$35$$35$k_$35$$35$915 () Int)
(declare-fun lq_tmp$36$x$35$$35$318 () Int)
(declare-fun select_$40$$44$$44$$44$$44$$41$_4 () Int)
(declare-fun lq_tmp$36$x$35$$35$561 () Int)
(declare-fun lq_anf$36$$35$$35$d1ds () Int)
(declare-fun select_$40$$44$$44$$44$$44$$44$$44$$41$_4 () Int)
(declare-fun f$35$$35$a17l () Int)
(declare-fun papp1 () Int)
(declare-fun is_$40$$44$$44$$44$$41$ () Int)
(declare-fun lq_karg$36$lq_anf$36$$35$$35$d1d6$35$$35$k_$35$$35$915 () Int)
(declare-fun lq_anf$36$$35$$35$d1dn () Int)
(declare-fun is_$40$$44$$44$$44$$44$$44$$41$ () Int)
(declare-fun VV$35$$35$976 () Int)
(declare-fun compose () Int)
(declare-fun r$35$$35$a17e () Int)
(declare-fun is_Reader () Int)
(declare-fun GHC.Types.EQ$35$$35$6U () Int)
(declare-fun VV$35$$35$459 () Int)
(declare-fun VV$35$$35$981 () Int)
(declare-fun fix$36$$36$dOptEq_a19q () Int)
(declare-fun lq_karg$36$$36$dOptEq_a19q$35$$35$k_$35$$35$915 () Int)
(declare-fun x$35$$35$a17o () Int)
(declare-fun lq_karg$36$lq_anf$36$$35$$35$d1dv$35$$35$k_$35$$35$915 () Int)
(declare-fun is_$40$$44$$41$ () Int)
(declare-fun lq_tmp$36$x$35$$35$419 () Int)
(declare-fun x$35$$35$a17d () Int)
(declare-fun VV$35$$35$1002 () Int)
(declare-fun select_$40$$44$$44$$41$_2 () Int)
(declare-fun lq_tmp$36$x$35$$35$848 () Int)
(declare-fun select_$40$$44$$44$$44$$44$$41$_2 () Int)
(declare-fun lq_tmp$36$x$35$$35$297 () Int)
(declare-fun is_$91$$93$ () Int)
(declare-fun select_$40$$44$$44$$44$$44$$44$$44$$41$_2 () Int)
(declare-fun lq_anf$36$$35$$35$d1du () Int)
(declare-fun VV$35$$35$F$35$$35$5 () Int)
(declare-fun select_$58$_1 () Int)
(declare-fun lq_anf$36$$35$$35$d1de () Int)
(declare-fun lq_karg$36$lq_anf$36$$35$$35$d1de$35$$35$k_$35$$35$915 () Int)
(declare-fun lq_anf$36$$35$$35$d1d5 () Int)
(declare-fun VV$35$$35$1020 () Int)
(declare-fun lq_karg$36$lq_anf$36$$35$$35$d1du$35$$35$k_$35$$35$915 () Int)
(declare-fun FunctorList.pure$35$$35$r16O () Int)
(declare-fun VV$35$$35$993 () Int)
(declare-fun select_$40$$44$$44$$44$$44$$44$$41$_6 () Int)
(declare-fun select_$40$$44$$44$$44$$44$$44$$41$_3 () Int)
(declare-fun select_$40$$44$$44$$44$$41$_3 () Int)
(declare-fun FunctorList.Reader$35$$35$r16M () Int)
(declare-fun lq_anf$36$$35$$35$d1dp () Int)
(declare-fun select_$40$$44$$44$$44$$44$$44$$44$$41$_7 () Int)
(declare-fun VV$35$$35$961 () Int)
(declare-fun lq_karg$36$lq_anf$36$$35$$35$d1dx$35$$35$k_$35$$35$915 () Int)
(declare-fun lq_anf$36$$35$$35$d1d0 () Int)
(declare-fun VV$35$$35$1025 () Int)
(declare-fun cmp () Int)
(declare-fun lq_karg$36$lq_anf$36$$35$$35$d1d8$35$$35$k_$35$$35$915 () Int)
(declare-fun lq_karg$36$lq_anf$36$$35$$35$d1dh$35$$35$k_$35$$35$915 () Int)
(declare-fun x$35$$35$a17n () Int)
(declare-fun VV$35$$35$1008 () Int)
(declare-fun FunctorList.seq$35$$35$r16P () Int)
(declare-fun w$35$$35$a17q () Int)
(declare-fun snd () Int)
(declare-fun fst () Int)
(declare-fun VV$35$$35$955 () Int)
(declare-fun lq_anf$36$$35$$35$d1do () Int)
(declare-fun Proves.$42$$42$$42$$35$$35$rlN () Int)
(declare-fun idollar () Int)
(declare-fun VV$35$$35$1011 () Int)
























(assert (distinct GHC.Types.EQ$35$$35$6U GHC.Types.GT$35$$35$6W GHC.Types.LT$35$$35$6S))
(push 1)
(declare-fun lambda_fun_$35$$35$314 () Int) (assert (forall ((w Int)) (= (int_apply_$35$$35$1 lambda_fun_$35$$35$314 w) (int_apply_$35$$35$1 x$35$$35$a17o w)))) (assert (forall ((lambda_fun_$35$$35$318 Int)) (=> (forall ((w Int)) (= (int_apply_$35$$35$1 lambda_fun_$35$$35$314 w) (int_apply_$35$$35$1 lambda_fun_$35$$35$314 w))) (and (forall ((local_fun_arg1 Int)) (= (int_apply_$35$$35$1 lambda_fun_$35$$35$314 local_fun_arg1) (int_apply_$35$$35$1 lambda_fun_$35$$35$318 local_fun_arg1))) (= lambda_fun_$35$$35$314 lambda_fun_$35$$35$318))))) (declare-fun lambda_fun_$35$$35$315 () Int) (assert (forall ((r$35$$35$a17e Int)) (and (forall ((local_fun_arg1 Int)) (= (int_apply_$35$$35$1 (int_apply_$35$$35$1 lambda_fun_$35$$35$315 r$35$$35$a17e) local_fun_arg1) (int_apply_$35$$35$1 lq_anf$36$$35$$35$d1db local_fun_arg1))) (= (int_apply_$35$$35$1 lambda_fun_$35$$35$315 r$35$$35$a17e) lq_anf$36$$35$$35$d1db)))) (assert (forall ((lambda_fun_$35$$35$319 Int)) (=> (forall ((r$35$$35$a17e Int)) (and (forall ((local_fun_arg1 Int)) (= (int_apply_$35$$35$1 (int_apply_$35$$35$1 lambda_fun_$35$$35$315 r$35$$35$a17e) local_fun_arg1) (int_apply_$35$$35$1 (int_apply_$35$$35$1 lambda_fun_$35$$35$315 r$35$$35$a17e) local_fun_arg1))) (= (int_apply_$35$$35$1 lambda_fun_$35$$35$315 r$35$$35$a17e) (int_apply_$35$$35$1 lambda_fun_$35$$35$315 r$35$$35$a17e)))) (and (forall ((local_fun_arg1 Int) (local_fun_arg2 Int)) (= (int_apply_$35$$35$2 lambda_fun_$35$$35$315 local_fun_arg1 local_fun_arg2) (int_apply_$35$$35$2 lambda_fun_$35$$35$319 local_fun_arg1 local_fun_arg2))) (= lambda_fun_$35$$35$315 lambda_fun_$35$$35$319))))) (declare-fun lambda_fun_$35$$35$316 () Int) (assert (forall ((r$35$$35$a17h Int)) (= (int_apply_$35$$35$1 lambda_fun_$35$$35$316 r$35$$35$a17h) (int_apply_$35$$35$1 (int_apply_$35$$35$1 (int_apply_$35$$35$1 select_Reader_1 lq_anf$36$$35$$35$d1dc) r$35$$35$a17h) (int_apply_$35$$35$1 (int_apply_$35$$35$1 select_Reader_1 lq_anf$36$$35$$35$d1dd) r$35$$35$a17h))))) (assert (forall ((lambda_fun_$35$$35$320 Int)) (=> (forall ((r$35$$35$a17h Int)) (= (int_apply_$35$$35$1 lambda_fun_$35$$35$316 r$35$$35$a17h) (int_apply_$35$$35$1 lambda_fun_$35$$35$316 r$35$$35$a17h))) (and (forall ((local_fun_arg1 Int)) (= (int_apply_$35$$35$1 lambda_fun_$35$$35$316 local_fun_arg1) (int_apply_$35$$35$1 lambda_fun_$35$$35$320 local_fun_arg1))) (= lambda_fun_$35$$35$316 lambda_fun_$35$$35$320))))) (declare-fun lambda_fun_$35$$35$317 () Int) (assert (forall ((r$35$$35$a17h Int)) (= (int_apply_$35$$35$1 lambda_fun_$35$$35$317 r$35$$35$a17h) (int_apply_$35$$35$1 (int_apply_$35$$35$1 (int_apply_$35$$35$1 select_Reader_1 lq_anf$36$$35$$35$d1dg) r$35$$35$a17h) (int_apply_$35$$35$1 (int_apply_$35$$35$1 select_Reader_1 lq_anf$36$$35$$35$d1dh) r$35$$35$a17h))))) (assert (forall ((lambda_fun_$35$$35$321 Int)) (=> (forall ((r$35$$35$a17h Int)) (= (int_apply_$35$$35$1 lambda_fun_$35$$35$317 r$35$$35$a17h) (int_apply_$35$$35$1 lambda_fun_$35$$35$317 r$35$$35$a17h))) (and (forall ((local_fun_arg1 Int)) (= (int_apply_$35$$35$1 lambda_fun_$35$$35$317 local_fun_arg1) (int_apply_$35$$35$1 lambda_fun_$35$$35$321 local_fun_arg1))) (= lambda_fun_$35$$35$317 lambda_fun_$35$$35$321))))) (assert (and (exists ((lq_karg$36$$36$dOptEq_a19u$35$$35$k_$35$$35$915 Int) (lq_karg$36$lq_anf$36$$35$$35$d1dr$35$$35$k_$35$$35$915 Int) (lq_karg$36$lq_anf$36$$35$$35$d1db$35$$35$k_$35$$35$915 Int) (lq_karg$36$lq_anf$36$$35$$35$d1da$35$$35$k_$35$$35$915 Int) (lq_karg$36$lq_anf$36$$35$$35$d1dq$35$$35$k_$35$$35$915 Int) (lq_karg$36$lq_anf$36$$35$$35$d1dt$35$$35$k_$35$$35$915 Int) (lq_karg$36$lq_anf$36$$35$$35$d1dd$35$$35$k_$35$$35$915 Int) (lq_karg$36$ds_d1cS$35$$35$k_$35$$35$915 Int) (lq_karg$36$lq_anf$36$$35$$35$d1dn$35$$35$k_$35$$35$915 Int) (lq_karg$36$x$35$$35$a17o$35$$35$k_$35$$35$915 Int) (lq_tmp$36$x$35$$35$917 Int) (lq_karg$36$lq_anf$36$$35$$35$d1dm$35$$35$k_$35$$35$915 Int) (lq_karg$36$lq_anf$36$$35$$35$d1dp$35$$35$k_$35$$35$915 Int) (lq_karg$36$lq_anf$36$$35$$35$d1dw$35$$35$k_$35$$35$915 Int) (lq_karg$36$lq_anf$36$$35$$35$d1dg$35$$35$k_$35$$35$915 Int) (lq_karg$36$lq_anf$36$$35$$35$d1d7$35$$35$k_$35$$35$915 Int) (lq_karg$36$VV$35$$35$914$35$$35$k_$35$$35$915 Int) (lq_karg$36$lq_anf$36$$35$$35$d1dj$35$$35$k_$35$$35$915 Int) (lq_karg$36$lq_anf$36$$35$$35$d1di$35$$35$k_$35$$35$915 Int) (lq_karg$36$lq_anf$36$$35$$35$d1d9$35$$35$k_$35$$35$915 Int) (lq_karg$36$lq_anf$36$$35$$35$d1dl$35$$35$k_$35$$35$915 Int) (lq_karg$36$lq_anf$36$$35$$35$d1ds$35$$35$k_$35$$35$915 Int) (lq_karg$36$lq_anf$36$$35$$35$d1dc$35$$35$k_$35$$35$915 Int) (lq_karg$36$lq_anf$36$$35$$35$d1d6$35$$35$k_$35$$35$915 Int) (lq_karg$36$lq_anf$36$$35$$35$d1df$35$$35$k_$35$$35$915 Int) (lq_karg$36$$36$dOptEq_a19q$35$$35$k_$35$$35$915 Int) (lq_karg$36$lq_anf$36$$35$$35$d1dv$35$$35$k_$35$$35$915 Int) (lq_karg$36$lq_anf$36$$35$$35$d1de$35$$35$k_$35$$35$915 Int) (lq_karg$36$lq_anf$36$$35$$35$d1du$35$$35$k_$35$$35$915 Int) (lq_karg$36$lq_anf$36$$35$$35$d1dx$35$$35$k_$35$$35$915 Int) (lq_karg$36$lq_anf$36$$35$$35$d1d8$35$$35$k_$35$$35$915 Int) (lq_karg$36$lq_anf$36$$35$$35$d1dh$35$$35$k_$35$$35$915 Int)) (and (and (= lq_karg$36$$36$dOptEq_a19u$35$$35$k_$35$$35$915 fix$36$$36$dOptEq_a19u) (= lq_karg$36$lq_anf$36$$35$$35$d1dr$35$$35$k_$35$$35$915 lq_anf$36$$35$$35$d1dr) (= lq_karg$36$lq_anf$36$$35$$35$d1db$35$$35$k_$35$$35$915 lq_anf$36$$35$$35$d1db) (= lq_karg$36$lq_anf$36$$35$$35$d1da$35$$35$k_$35$$35$915 lq_anf$36$$35$$35$d1da) (= lq_karg$36$lq_anf$36$$35$$35$d1dq$35$$35$k_$35$$35$915 lq_anf$36$$35$$35$d1dq) (= lq_karg$36$lq_anf$36$$35$$35$d1dt$35$$35$k_$35$$35$915 lq_anf$36$$35$$35$d1dt) (= lq_karg$36$lq_anf$36$$35$$35$d1dd$35$$35$k_$35$$35$915 lq_anf$36$$35$$35$d1dd) (= lq_karg$36$ds_d1cS$35$$35$k_$35$$35$915 ds_d1cS) (= lq_karg$36$lq_anf$36$$35$$35$d1dn$35$$35$k_$35$$35$915 lq_anf$36$$35$$35$d1dn) (= lq_karg$36$x$35$$35$a17o$35$$35$k_$35$$35$915 x$35$$35$a17o) (= lq_tmp$36$x$35$$35$917 lq_anf$36$$35$$35$d1dy) (= lq_karg$36$lq_anf$36$$35$$35$d1dm$35$$35$k_$35$$35$915 lq_anf$36$$35$$35$d1dm) (= lq_karg$36$lq_anf$36$$35$$35$d1dp$35$$35$k_$35$$35$915 lq_anf$36$$35$$35$d1dp) (= lq_karg$36$lq_anf$36$$35$$35$d1dw$35$$35$k_$35$$35$915 lq_anf$36$$35$$35$d1dw) (= lq_karg$36$lq_anf$36$$35$$35$d1dg$35$$35$k_$35$$35$915 lq_anf$36$$35$$35$d1dg) (= lq_karg$36$lq_anf$36$$35$$35$d1d7$35$$35$k_$35$$35$915 lq_anf$36$$35$$35$d1d7) (= lq_karg$36$VV$35$$35$914$35$$35$k_$35$$35$915 lq_anf$36$$35$$35$d1dy) (= lq_karg$36$lq_anf$36$$35$$35$d1dj$35$$35$k_$35$$35$915 lq_anf$36$$35$$35$d1dj) (= lq_karg$36$lq_anf$36$$35$$35$d1di$35$$35$k_$35$$35$915 lq_anf$36$$35$$35$d1di) (= lq_karg$36$lq_anf$36$$35$$35$d1d9$35$$35$k_$35$$35$915 lq_anf$36$$35$$35$d1d9) (= lq_karg$36$lq_anf$36$$35$$35$d1dl$35$$35$k_$35$$35$915 lq_anf$36$$35$$35$d1dl) (= lq_karg$36$lq_anf$36$$35$$35$d1ds$35$$35$k_$35$$35$915 lq_anf$36$$35$$35$d1ds) (= lq_karg$36$lq_anf$36$$35$$35$d1dc$35$$35$k_$35$$35$915 lq_anf$36$$35$$35$d1dc) (= lq_karg$36$lq_anf$36$$35$$35$d1d6$35$$35$k_$35$$35$915 lq_anf$36$$35$$35$d1d6) (= lq_karg$36$lq_anf$36$$35$$35$d1df$35$$35$k_$35$$35$915 lq_anf$36$$35$$35$d1df) (= lq_karg$36$$36$dOptEq_a19q$35$$35$k_$35$$35$915 fix$36$$36$dOptEq_a19q) (= lq_karg$36$lq_anf$36$$35$$35$d1dv$35$$35$k_$35$$35$915 lq_anf$36$$35$$35$d1dv) (= lq_karg$36$lq_anf$36$$35$$35$d1de$35$$35$k_$35$$35$915 lq_anf$36$$35$$35$d1de) (= lq_karg$36$lq_anf$36$$35$$35$d1du$35$$35$k_$35$$35$915 lq_anf$36$$35$$35$d1du) (= lq_karg$36$lq_anf$36$$35$$35$d1dx$35$$35$k_$35$$35$915 lq_anf$36$$35$$35$d1dx) (= lq_karg$36$lq_anf$36$$35$$35$d1d8$35$$35$k_$35$$35$915 lq_anf$36$$35$$35$d1d8) (= lq_karg$36$lq_anf$36$$35$$35$d1dh$35$$35$k_$35$$35$915 lq_anf$36$$35$$35$d1dh)) (exists ((VV$35$$35$F$35$$35$5 Int) (lq_tmp$36$x$35$$35$905 Int)) (and (and (= lq_karg$36$$36$dOptEq_a19u$35$$35$k_$35$$35$915 fix$36$$36$dOptEq_a19u) (= lq_karg$36$lq_anf$36$$35$$35$d1dr$35$$35$k_$35$$35$915 lq_anf$36$$35$$35$d1dr) (= lq_karg$36$lq_anf$36$$35$$35$d1db$35$$35$k_$35$$35$915 lq_anf$36$$35$$35$d1db) (= lq_karg$36$lq_anf$36$$35$$35$d1da$35$$35$k_$35$$35$915 lq_anf$36$$35$$35$d1da) (= lq_karg$36$lq_anf$36$$35$$35$d1dq$35$$35$k_$35$$35$915 lq_anf$36$$35$$35$d1dq) (= lq_karg$36$lq_anf$36$$35$$35$d1dt$35$$35$k_$35$$35$915 lq_anf$36$$35$$35$d1dt) (= lq_karg$36$lq_anf$36$$35$$35$d1dd$35$$35$k_$35$$35$915 lq_anf$36$$35$$35$d1dd) (= lq_karg$36$ds_d1cS$35$$35$k_$35$$35$915 ds_d1cS) (= lq_karg$36$lq_anf$36$$35$$35$d1dn$35$$35$k_$35$$35$915 lq_anf$36$$35$$35$d1dn) (= lq_karg$36$x$35$$35$a17o$35$$35$k_$35$$35$915 x$35$$35$a17o) (= lq_karg$36$lq_anf$36$$35$$35$d1dm$35$$35$k_$35$$35$915 lq_anf$36$$35$$35$d1dm) (= lq_karg$36$lq_anf$36$$35$$35$d1dp$35$$35$k_$35$$35$915 lq_anf$36$$35$$35$d1dp) (= lq_karg$36$lq_anf$36$$35$$35$d1dw$35$$35$k_$35$$35$915 lq_anf$36$$35$$35$d1dw) (= lq_karg$36$lq_anf$36$$35$$35$d1dg$35$$35$k_$35$$35$915 lq_anf$36$$35$$35$d1dg) (= lq_karg$36$lq_anf$36$$35$$35$d1d7$35$$35$k_$35$$35$915 lq_anf$36$$35$$35$d1d7) (= lq_karg$36$VV$35$$35$914$35$$35$k_$35$$35$915 VV$35$$35$F$35$$35$5) (= lq_karg$36$lq_anf$36$$35$$35$d1dj$35$$35$k_$35$$35$915 lq_anf$36$$35$$35$d1dj) (= lq_karg$36$lq_anf$36$$35$$35$d1di$35$$35$k_$35$$35$915 lq_anf$36$$35$$35$d1di) (= lq_karg$36$lq_anf$36$$35$$35$d1d9$35$$35$k_$35$$35$915 lq_anf$36$$35$$35$d1d9) (= lq_karg$36$lq_anf$36$$35$$35$d1dl$35$$35$k_$35$$35$915 lq_anf$36$$35$$35$d1dl) (= lq_karg$36$lq_anf$36$$35$$35$d1ds$35$$35$k_$35$$35$915 lq_anf$36$$35$$35$d1ds) (= lq_karg$36$lq_anf$36$$35$$35$d1dc$35$$35$k_$35$$35$915 lq_anf$36$$35$$35$d1dc) (= lq_karg$36$lq_anf$36$$35$$35$d1d6$35$$35$k_$35$$35$915 lq_anf$36$$35$$35$d1d6) (= lq_karg$36$lq_anf$36$$35$$35$d1df$35$$35$k_$35$$35$915 lq_anf$36$$35$$35$d1df) (= lq_karg$36$$36$dOptEq_a19q$35$$35$k_$35$$35$915 fix$36$$36$dOptEq_a19q) (= lq_karg$36$lq_anf$36$$35$$35$d1dv$35$$35$k_$35$$35$915 lq_anf$36$$35$$35$d1dv) (= lq_karg$36$lq_anf$36$$35$$35$d1de$35$$35$k_$35$$35$915 lq_anf$36$$35$$35$d1de) (= lq_karg$36$lq_anf$36$$35$$35$d1du$35$$35$k_$35$$35$915 lq_anf$36$$35$$35$d1du) (= lq_karg$36$lq_anf$36$$35$$35$d1dx$35$$35$k_$35$$35$915 lq_anf$36$$35$$35$d1dx) (= lq_karg$36$lq_anf$36$$35$$35$d1d8$35$$35$k_$35$$35$915 lq_anf$36$$35$$35$d1d8) (= lq_karg$36$lq_anf$36$$35$$35$d1dh$35$$35$k_$35$$35$915 lq_anf$36$$35$$35$d1dh)))))) (and (and (forall ((local_fun_arg1 Int)) (= (int_apply_$35$$35$1 (int_apply_$35$$35$1 select_Reader_1 lq_anf$36$$35$$35$d1dv) local_fun_arg1) (int_apply_$35$$35$1 x$35$$35$a17o local_fun_arg1))) (= (int_apply_$35$$35$1 select_Reader_1 lq_anf$36$$35$$35$d1dv) x$35$$35$a17o)) (= (bool_apply_$35$$35$1 is_Reader lq_anf$36$$35$$35$d1dv) true)) (and (forall ((local_fun_arg1 Int)) (= (int_apply_$35$$35$1 lambda_fun_$35$$35$314 local_fun_arg1) (int_apply_$35$$35$1 x$35$$35$a17o local_fun_arg1))) (= lambda_fun_$35$$35$314 x$35$$35$a17o)) (= lq_anf$36$$35$$35$d1da ds_d1cS) (= lq_anf$36$$35$$35$d1da ds_d1cS) (and (and (forall ((local_fun_arg1 Int)) (= (int_apply_$35$$35$1 (int_apply_$35$$35$1 select_Reader_1 lq_anf$36$$35$$35$d1dm) local_fun_arg1) (int_apply_$35$$35$1 lq_anf$36$$35$$35$d1dl local_fun_arg1))) (= (int_apply_$35$$35$1 select_Reader_1 lq_anf$36$$35$$35$d1dm) lq_anf$36$$35$$35$d1dl)) (= (bool_apply_$35$$35$1 is_Reader lq_anf$36$$35$$35$d1dm) true)) (and (= lq_anf$36$$35$$35$d1da ds_d1cS) (and (forall ((local_fun_arg1 Int)) (= (int_apply_$35$$35$1 (int_apply_$35$$35$1 select_Reader_1 lq_anf$36$$35$$35$d1da) local_fun_arg1) (int_apply_$35$$35$1 x$35$$35$a17o local_fun_arg1))) (= (int_apply_$35$$35$1 select_Reader_1 lq_anf$36$$35$$35$d1da) x$35$$35$a17o)) (= (bool_apply_$35$$35$1 is_Reader lq_anf$36$$35$$35$d1da) true) (and (forall ((local_fun_arg1 Int)) (= (int_apply_$35$$35$1 (int_apply_$35$$35$1 select_Reader_1 lq_anf$36$$35$$35$d1da) local_fun_arg1) (int_apply_$35$$35$1 x$35$$35$a17o local_fun_arg1))) (= (int_apply_$35$$35$1 select_Reader_1 lq_anf$36$$35$$35$d1da) x$35$$35$a17o)) (= (bool_apply_$35$$35$1 is_Reader lq_anf$36$$35$$35$d1da) true)) (and (= lq_anf$36$$35$$35$d1db key$id) (= lq_anf$36$$35$$35$d1db key$id)) (and (= lq_anf$36$$35$$35$d1dc (int_apply_$35$$35$1 pure lq_anf$36$$35$$35$d1db)) (= lq_anf$36$$35$$35$d1dc (int_apply_$35$$35$1 FunctorList.Reader$35$$35$r16M lambda_fun_$35$$35$315)) (= lq_anf$36$$35$$35$d1dc (int_apply_$35$$35$1 pure lq_anf$36$$35$$35$d1db))) (and (and (forall ((local_fun_arg1 Int)) (= (int_apply_$35$$35$1 (int_apply_$35$$35$1 select_Reader_1 lq_anf$36$$35$$35$d1dd) local_fun_arg1) (int_apply_$35$$35$1 x$35$$35$a17o local_fun_arg1))) (= (int_apply_$35$$35$1 select_Reader_1 lq_anf$36$$35$$35$d1dd) x$35$$35$a17o)) (= (bool_apply_$35$$35$1 is_Reader lq_anf$36$$35$$35$d1dd) true)) (and (= lq_anf$36$$35$$35$d1de (int_apply_$35$$35$1 (int_apply_$35$$35$1 seq lq_anf$36$$35$$35$d1dc) lq_anf$36$$35$$35$d1dd)) (= lq_anf$36$$35$$35$d1de (int_apply_$35$$35$1 FunctorList.Reader$35$$35$r16M lambda_fun_$35$$35$316)) (= lq_anf$36$$35$$35$d1de (int_apply_$35$$35$1 (int_apply_$35$$35$1 seq lq_anf$36$$35$$35$d1dc) lq_anf$36$$35$$35$d1dd))) (and (and (forall ((local_fun_arg1 Int)) (= (int_apply_$35$$35$1 (int_apply_$35$$35$1 select_Reader_1 lq_anf$36$$35$$35$d1dq) local_fun_arg1) (int_apply_$35$$35$1 lq_anf$36$$35$$35$d1dp local_fun_arg1))) (= (int_apply_$35$$35$1 select_Reader_1 lq_anf$36$$35$$35$d1dq) lq_anf$36$$35$$35$d1dp)) (= (bool_apply_$35$$35$1 is_Reader lq_anf$36$$35$$35$d1dq) true)) (and (and (forall ((local_fun_arg1 Int) (local_fun_arg2 Int)) (= (int_apply_$35$$35$2 (int_apply_$35$$35$1 select_Reader_1 lq_anf$36$$35$$35$d1dg) local_fun_arg1 local_fun_arg2) (int_apply_$35$$35$2 lq_anf$36$$35$$35$d1df local_fun_arg1 local_fun_arg2))) (= (int_apply_$35$$35$1 select_Reader_1 lq_anf$36$$35$$35$d1dg) lq_anf$36$$35$$35$d1df)) (= (bool_apply_$35$$35$1 is_Reader lq_anf$36$$35$$35$d1dg) true)) (and (and (forall ((local_fun_arg1 Int)) (= (int_apply_$35$$35$1 (int_apply_$35$$35$1 select_Reader_1 lq_anf$36$$35$$35$d1dh) local_fun_arg1) (int_apply_$35$$35$1 x$35$$35$a17o local_fun_arg1))) (= (int_apply_$35$$35$1 select_Reader_1 lq_anf$36$$35$$35$d1dh) x$35$$35$a17o)) (= (bool_apply_$35$$35$1 is_Reader lq_anf$36$$35$$35$d1dh) true)) (and (and (forall ((local_fun_arg1 Int)) (= (int_apply_$35$$35$1 (int_apply_$35$$35$1 select_Reader_1 lq_anf$36$$35$$35$d1dt) local_fun_arg1) (int_apply_$35$$35$1 lq_anf$36$$35$$35$d1ds local_fun_arg1))) (= (int_apply_$35$$35$1 select_Reader_1 lq_anf$36$$35$$35$d1dt) lq_anf$36$$35$$35$d1ds)) (= (bool_apply_$35$$35$1 is_Reader lq_anf$36$$35$$35$d1dt) true)) (and (= lq_anf$36$$35$$35$d1di (int_apply_$35$$35$1 (int_apply_$35$$35$1 seq lq_anf$36$$35$$35$d1dg) lq_anf$36$$35$$35$d1dh)) (= lq_anf$36$$35$$35$d1di (int_apply_$35$$35$1 FunctorList.Reader$35$$35$r16M lambda_fun_$35$$35$317)) (= lq_anf$36$$35$$35$d1di (int_apply_$35$$35$1 (int_apply_$35$$35$1 seq lq_anf$36$$35$$35$d1dg) lq_anf$36$$35$$35$d1dh)))))
(push 1)
(assert (not (= (int_apply_$35$$35$1 (int_apply_$35$$35$1 seq (int_apply_$35$$35$1 pure key$id)) ds_d1cS) ds_d1cS)))
(check-sat)
; SMT Says: Unknown
(pop 1)
(pop 1)
(push 1)
(assert (and (= VV$35$$35$F$35$$35$50 Proves.simpleProof$35$$35$rlS)))
(push 1)
(declare-fun lambda_fun_$35$$35$323 () Int) (assert (forall ((w Int)) (= (int_apply_$35$$35$1 lambda_fun_$35$$35$323 w) (int_apply_$35$$35$1 ds_d1cP w)))) (assert (forall ((lambda_fun_$35$$35$324 Int)) (=> (forall ((w Int)) (= (int_apply_$35$$35$1 lambda_fun_$35$$35$323 w) (int_apply_$35$$35$1 lambda_fun_$35$$35$323 w))) (and (forall ((local_fun_arg1 Int)) (= (int_apply_$35$$35$1 lambda_fun_$35$$35$323 local_fun_arg1) (int_apply_$35$$35$1 lambda_fun_$35$$35$324 local_fun_arg1))) (= lambda_fun_$35$$35$323 lambda_fun_$35$$35$324))))) (assert (not (and (forall ((local_fun_arg1 Int)) (= (int_apply_$35$$35$1 lambda_fun_$35$$35$323 local_fun_arg1) (int_apply_$35$$35$1 ds_d1cP local_fun_arg1))) (= lambda_fun_$35$$35$323 ds_d1cP))))
(check-sat)
; SMT Says: Unknown
(pop 1)
(pop 1)
(exit)
